<number of tasks>
28

<cycle time>
256

<task times>
1 70
2 59
3 33
4 6
5 1
6 27
7 17
8 62
9 31
10 53
11 21
12 19
13 108
14 52
15 5
16 8
17 97
18 8
19 47
20 67
21 17
22 8
23 3
24 21
25 107
26 3
27 2
28 72

<precedence relations>
1,2
1,3
1,4
1,5
1,8
1,19
1,21
1,22
1,23
1,24
1,26
2,6
2,17
3,28
4,28
5,28
6,7
7,18
8,9
9,10
10,11
10,12
11,15
12,13
13,14
13,16
14,28
15,28
16,28
17,28
18,28
19,20
20,28
21,28
22,28
23,28
24,25
25,28
26,27
27,28

<setup times forward>
1,3:14
1,4:14
1,5:5
1,19:6
1,21:6
1,23:5
2,3:14
2,4:14
2,5:5
2,6:14
2,10:14
2,11:14
2,12:14
2,13:6
2,14:5
2,15:5
2,16:5
2,17:14
2,19:6
2,20:6
2,21:6
2,23:5
2,25:5
3,2:14
3,5:9
3,7:20
3,8:14
3,9:14
3,13:20
3,14:9
3,15:9
3,16:9
3,18:9
3,19:20
3,20:20
3,21:20
3,22:14
3,23:9
3,24:14
3,25:9
3,26:14
3,27:14
3,28:9
4,2:14
4,5:9
4,7:20
4,8:14
4,9:14
4,13:20
4,14:9
4,15:9
4,16:9
4,18:9
4,19:20
4,20:20
4,21:20
4,22:14
4,23:9
4,24:14
4,25:9
4,26:14
4,27:14
4,28:9
5,2:5
5,3:9
5,4:9
5,6:9
5,7:11
5,8:5
5,9:5
5,10:9
5,11:9
5,12:9
5,13:11
5,17:9
5,19:11
5,20:11
5,21:11
5,22:5
5,24:5
5,26:5
5,27:5
6,5:9
6,7:20
6,8:14
6,9:14
6,13:20
6,14:9
6,15:9
6,16:9
6,19:20
6,20:20
6,21:20
6,22:14
6,23:9
6,24:14
6,25:9
6,26:14
6,27:14
7,3:20
7,4:20
7,5:11
7,8:6
7,9:6
7,10:20
7,11:20
7,12:20
7,14:11
7,15:11
7,16:11
7,17:20
7,18:11
7,22:6
7,23:11
7,24:6
7,25:11
7,26:6
7,27:6
8,3:14
8,4:14
8,5:5
8,6:14
8,7:6
8,17:14
8,18:5
8,19:6
8,20:6
8,21:6
8,23:5
8,25:5
9,3:14
9,4:14
9,5:5
9,6:14
9,7:6
9,10:14
9,17:14
9,18:5
9,19:6
9,20:6
9,21:6
9,23:5
9,25:5
10,2:14
10,5:9
10,7:20
10,18:9
10,19:20
10,20:20
10,21:20
10,22:14
10,23:9
10,24:14
10,25:9
10,26:14
10,27:14
11,2:14
11,5:9
11,7:20
11,13:20
11,14:9
11,15:9
11,16:9
11,18:9
11,19:20
11,20:20
11,21:20
11,22:14
11,23:9
11,24:14
11,25:9
11,26:14
11,27:14
12,2:14
12,5:9
12,7:20
12,13:20
12,15:9
12,18:9
12,19:20
12,20:20
12,21:20
12,22:14
12,23:9
12,24:14
12,25:9
12,26:14
12,27:14
13,2:6
13,3:20
13,4:20
13,5:11
13,6:20
13,11:20
13,14:11
13,15:11
13,16:11
13,17:20
13,18:11
13,22:6
13,23:11
13,24:6
13,25:11
13,26:6
13,27:6
14,2:5
14,3:9
14,4:9
14,6:9
14,7:11
14,11:9
14,17:9
14,19:11
14,20:11
14,21:11
14,22:5
14,24:5
14,26:5
14,27:5
15,2:5
15,3:9
15,4:9
15,6:9
15,7:11
15,12:9
15,13:11
15,17:9
15,19:11
15,20:11
15,21:11
15,22:5
15,24:5
15,26:5
15,27:5
16,2:5
16,3:9
16,4:9
16,6:9
16,7:11
16,11:9
16,17:9
16,19:11
16,20:11
16,21:11
16,22:5
16,24:5
16,26:5
16,27:5
17,5:9
17,7:20
17,8:14
17,9:14
17,13:20
17,14:9
17,15:9
17,16:9
17,18:9
17,19:20
17,20:20
17,21:20
17,22:14
17,23:9
17,24:14
17,25:9
17,26:14
17,27:14
17,28:9
18,3:9
18,4:9
18,8:5
18,9:5
18,10:9
18,11:9
18,12:9
18,13:11
18,17:9
18,19:11
18,20:11
18,21:11
18,22:5
18,24:5
18,26:5
18,27:5
19,2:6
19,3:20
19,4:20
19,5:11
19,6:20
19,8:6
19,9:6
19,10:20
19,11:20
19,12:20
19,14:11
19,15:11
19,16:11
19,17:20
19,18:11
19,22:6
19,23:11
19,24:6
19,25:11
19,26:6
19,27:6
20,2:6
20,3:20
20,4:20
20,5:11
20,6:20
20,8:6
20,9:6
20,10:20
20,11:20
20,12:20
20,14:11
20,15:11
20,16:11
20,17:20
20,18:11
20,22:6
20,23:11
20,24:6
20,25:11
20,26:6
20,27:6
20,28:11
21,2:6
21,3:20
21,4:20
21,5:11
21,6:20
21,8:6
21,9:6
21,10:20
21,11:20
21,12:20
21,14:11
21,15:11
21,16:11
21,17:20
21,18:11
21,22:6
21,23:11
21,24:6
21,25:11
21,26:6
21,27:6
21,28:11
22,3:14
22,4:14
22,5:5
22,6:14
22,7:6
22,10:14
22,11:14
22,12:14
22,13:6
22,14:5
22,15:5
22,16:5
22,17:14
22,18:5
22,19:6
22,20:6
22,21:6
22,23:5
22,25:5
22,28:5
23,2:5
23,3:9
23,4:9
23,6:9
23,7:11
23,8:5
23,9:5
23,10:9
23,11:9
23,12:9
23,13:11
23,17:9
23,19:11
23,20:11
23,21:11
23,22:5
23,24:5
23,26:5
23,27:5
24,3:14
24,4:14
24,5:5
24,6:14
24,7:6
24,10:14
24,11:14
24,12:14
24,13:6
24,14:5
24,15:5
24,16:5
24,17:14
24,18:5
24,19:6
24,20:6
24,21:6
24,23:5
24,25:5
25,2:5
25,3:9
25,4:9
25,6:9
25,7:11
25,8:5
25,9:5
25,10:9
25,11:9
25,12:9
25,13:11
25,17:9
25,19:11
25,20:11
25,21:11
25,22:5
25,26:5
25,27:5
26,3:14
26,4:14
26,5:5
26,6:14
26,7:6
26,10:14
26,11:14
26,12:14
26,13:6
26,14:5
26,15:5
26,16:5
26,17:14
26,18:5
26,19:6
26,20:6
26,21:6
26,23:5
26,25:5
27,3:14
27,4:14
27,5:5
27,6:14
27,7:6
27,10:14
27,11:14
27,12:14
27,13:6
27,14:5
27,15:5
27,16:5
27,17:14
27,18:5
27,19:6
27,20:6
27,21:6
27,23:5
27,25:5
27,28:5

<setup times backward>
2,13:6
2,19:6
2,20:6
2,21:6
3,1:14
3,2:14
3,5:9
3,7:20
3,8:14
3,9:14
3,13:20
3,14:9
3,15:9
3,16:9
3,18:9
3,19:20
3,20:20
3,21:20
3,22:14
3,23:9
3,24:14
3,25:9
3,26:14
3,27:14
4,1:14
4,2:14
4,5:9
4,7:20
4,8:14
4,9:14
4,13:20
4,14:9
4,15:9
4,16:9
4,18:9
4,19:20
4,20:20
4,21:20
4,22:14
4,23:9
4,24:14
4,25:9
4,26:14
4,27:14
5,1:5
5,2:5
5,7:11
5,8:5
5,9:5
5,13:11
5,19:11
5,20:11
5,21:11
5,22:5
5,24:5
5,26:5
5,27:5
6,1:14
6,2:14
6,5:9
6,8:14
6,9:14
6,13:20
6,14:9
6,15:9
6,16:9
6,19:20
6,20:20
6,21:20
6,22:14
6,23:9
6,24:14
6,25:9
6,26:14
6,27:14
8,7:6
8,19:6
8,20:6
8,21:6
9,7:6
9,19:6
9,20:6
9,21:6
10,1:14
10,2:14
10,5:9
10,7:20
10,8:14
10,9:14
10,18:9
10,19:20
10,20:20
10,21:20
10,22:14
10,23:9
10,24:14
10,25:9
10,26:14
10,27:14
11,1:14
11,2:14
11,5:9
11,7:20
11,8:14
11,9:14
11,13:20
11,14:9
11,16:9
11,18:9
11,19:20
11,20:20
11,21:20
11,22:14
11,23:9
11,24:14
11,25:9
11,26:14
11,27:14
12,1:14
12,2:14
12,5:9
12,7:20
12,8:14
12,9:14
12,15:9
12,18:9
12,19:20
12,20:20
12,21:20
12,22:14
12,23:9
12,24:14
12,25:9
12,26:14
12,27:14
14,1:5
14,2:5
14,7:11
14,8:5
14,9:5
14,13:11
14,19:11
14,20:11
14,21:11
14,22:5
14,24:5
14,26:5
14,27:5
15,1:5
15,2:5
15,7:11
15,8:5
15,9:5
15,13:11
15,19:11
15,20:11
15,21:11
15,22:5
15,24:5
15,26:5
15,27:5
16,1:5
16,2:5
16,7:11
16,8:5
16,9:5
16,13:11
16,19:11
16,20:11
16,21:11
16,22:5
16,24:5
16,26:5
16,27:5
17,1:14
17,2:14
17,5:9
17,7:20
17,8:14
17,9:14
17,13:20
17,14:9
17,15:9
17,16:9
17,18:9
17,19:20
17,20:20
17,21:20
17,22:14
17,23:9
17,24:14
17,25:9
17,26:14
17,27:14
18,1:5
18,2:5
18,7:11
18,8:5
18,9:5
18,13:11
18,19:11
18,20:11
18,21:11
18,22:5
18,24:5
18,26:5
18,27:5
22,7:6
22,13:6
22,19:6
22,20:6
22,21:6
23,1:5
23,2:5
23,7:11
23,8:5
23,9:5
23,13:11
23,19:11
23,20:11
23,21:11
23,22:5
23,24:5
23,26:5
23,27:5
24,7:6
24,13:6
24,19:6
24,20:6
24,21:6
25,1:5
25,2:5
25,7:11
25,8:5
25,9:5
25,13:11
25,19:11
25,20:11
25,21:11
25,22:5
25,24:5
25,26:5
25,27:5
26,7:6
26,13:6
26,19:6
26,20:6
26,21:6
27,7:6
27,13:6
27,19:6
27,20:6
27,21:6
28,1:5
28,2:5
28,7:11
28,8:5
28,9:5
28,13:11
28,19:11
28,20:11
28,21:11
28,22:5
28,24:5
28,26:5
28,27:5

<end>

<optimal SALBP-1 value>
4


<rand seed>
467321153

<Lower Bounds>
Lm1=4
Lms1=4
Lm2=0
Lm3=2
Lm4=4
Best=4

<Optimal Stations (Iterations: 10)>
5
